networks/zoo_80_936/zoo_80_936-lower.txt
Number of groups: 36
Flow 1: {1 2 0} {2 42 0} 
Flow 2: {1 3 0} {3 43 0} 
Flow 3: {1 5 0} {5 4 0} {4 44 0} 
Flow 4: {5 45 0} 
Flow 5: {5 6 0} {6 46 0} 
Flow 6: {5 7 0} {7 47 0} 
Flow 7: {1 35 0} {35 8 0} {8 48 0} 
Flow 8: {5 9 0} {9 49 0} 
Flow 9: {9 10 0} {10 50 0} 
Flow 10: {5 30 0} {30 16 0} {16 13 0} {13 53 0} 
Flow 11: {6 24 0} {24 23 0} {23 14 0} {14 54 0} 
Flow 12: {16 56 0} 
Flow 13: {23 63 0} 
Flow 14: {24 64 0} 
Flow 15: {35 25 0} {25 65 0} 
Flow 16: {9 26 0} {26 66 0} 
Flow 17: {23 27 0} {27 67 0} 
Flow 18: {30 29 0} {29 28 0} {28 68 0} 
Flow 19: {29 69 0} 
Flow 20: {30 70 0} 
Flow 21: {1 31 0} {31 71 0} 
Flow 22: {3 32 0} {32 72 0} 
Flow 23: {3 33 0} {33 73 0} 
Flow 24: {2 34 0} {34 74 0} 
Flow 25: {35 75 0} 
Flow 26: {3 36 0} {36 76 0} 
Flow 27: {3 37 0} {37 38 0} {38 78 0} 
Flow 28: {3 39 0} {39 79 0} 
Flow 29: {31 40 0} {40 80 0} 
Flow 30: {2 1 0} {1 41 0} 
Flow 47: {3 1 0} Flow 49: {3 5 0} Flow 56: {14 12 0} {12 52 0} 
Flow 60: {5 18 0} {18 58 0} 
Flow 77: {39 40 0} Flow 78: {4 5 0} {5 1 0} Flow 80: {5 3 0} Flow 82: {4 6 0} Flow 84: {7 8 0} Flow 99: {4 31 0} Flow 100: {5 32 0} Flow 120: {13 15 0} {15 55 0} 
Flow 123: {10 19 0} {19 59 0} 
Flow 124: {4 20 0} {20 60 0} 
Flow 139: {37 77 0} 
Flow 143: {6 5 0} Flow 146: {6 4 0} Flow 150: {23 13 0} Flow 158: {23 28 0} Flow 170: {7 5 0} Flow 183: {8 26 0} {26 25 0} Flow 192: {8 35 0} {35 34 0} Flow 198: {35 1 0} Flow 200: {8 7 0} Flow 205: {8 9 0} Flow 207: {10 16 0} {13 14 0} Flow 222: {35 33 0} Flow 229: {9 5 0} Flow 236: {9 8 0} Flow 259: {10 9 0} Flow 271: {10 30 0} {30 24 0} Flow 273: {10 26 0} Flow 288: {13 16 0} {16 30 0} {30 5 0} Flow 291: {13 23 0} {23 24 0} {24 6 0} Flow 295: {16 10 0} Flow 307: {28 29 0} Flow 318: {14 13 0} Flow 321: {14 23 0} Flow 345: {15 13 0} Flow 355: {15 14 0} Flow 404: {18 5 0} Flow 418: {18 31 0} Flow 446: {24 30 0} Flow 469: {30 10 0} Flow 484: {25 35 0} Flow 487: {25 26 0} {26 9 0} Flow 490: {26 8 0} Flow 493: {26 10 0} Flow 544: {27 23 0} Flow 570: {29 30 0} Flow 573: {28 23 0} Flow 658: {31 1 0} Flow 661: {31 4 0} Flow 685: {40 39 0} Flow 687: {32 3 0} Flow 690: {32 5 0} Flow 713: {33 3 0} Flow 720: {33 35 0} Flow 742: {34 2 0} Flow 748: {34 35 0} Flow 800: {36 3 0} Flow 824: {36 37 0} Flow 827: {37 3 0} Flow 853: {37 36 0} Flow 857: {38 37 0} Flow 878: {39 3 0} Flow 900: {40 31 0} Time taken running everything: 0 seconds
