networks/zoo_80_936/zoo_80_936-lower.sol
<?xml version = "1.0" encoding="UTF-8" standalone="yes"?>
<CPLEXSolution version="1.2">
 <header
   problemName="networks/zoo_80_936/zoo_80_936-lower.lp"
   solutionName="incumbent"
   solutionIndex="-1"
   objectiveValue="36"
   solutionTypeValue="3"
   solutionTypeString="primal"
   solutionStatusValue="101"
   solutionStatusString="integer optimal solution"
   solutionMethodString="mip"
   primalFeasible="1"
   dualFeasible="1"
   MIPNodes="0"
   MIPIterations="0"
   writeLevel="3"/>
 <quality
   epInt="1.0000000000000001e-05"
   epRHS="9.9999999999999995e-07"
   maxIntInfeas="0"
   maxPrimalInfeas="0"
   maxX="1"
   maxSlack="1"/>
 <variables>
  <variable name="Y(1,2)" index="1" value="1"/>
  <variable name="Y(2,3)" index="74" value="1"/>
  <variable name="Y(3,4)" index="147" value="1"/>
  <variable name="Y(4,5)" index="220" value="1"/>
  <variable name="Y(5,6)" index="293" value="1"/>
  <variable name="Y(6,7)" index="366" value="1"/>
  <variable name="Y(7,8)" index="439" value="1"/>
  <variable name="Y(8,9)" index="512" value="1"/>
  <variable name="Y(9,10)" index="585" value="1"/>
  <variable name="Y(10,13)" index="659" value="1"/>
  <variable name="Y(11,14)" index="732" value="1"/>
  <variable name="Y(12,16)" index="806" value="1"/>
  <variable name="Y(13,23)" index="882" value="1"/>
  <variable name="Y(14,24)" index="955" value="1"/>
  <variable name="Y(15,25)" index="1028" value="1"/>
  <variable name="Y(16,26)" index="1101" value="1"/>
  <variable name="Y(17,27)" index="1174" value="1"/>
  <variable name="Y(18,28)" index="1247" value="1"/>
  <variable name="Y(19,29)" index="1320" value="1"/>
  <variable name="Y(20,30)" index="1393" value="1"/>
  <variable name="Y(21,31)" index="1466" value="1"/>
  <variable name="Y(22,32)" index="1539" value="1"/>
  <variable name="Y(23,33)" index="1612" value="1"/>
  <variable name="Y(24,34)" index="1685" value="1"/>
  <variable name="Y(25,35)" index="1758" value="1"/>
  <variable name="Y(26,36)" index="1831" value="1"/>
  <variable name="Y(27,38)" index="1905" value="1"/>
  <variable name="Y(28,39)" index="1978" value="1"/>
  <variable name="Y(29,40)" index="2051" value="1"/>
  <variable name="Y(30,1)" index="2088" value="1"/>
  <variable name="Y(56,12)" index="3970" value="1"/>
  <variable name="Y(60,18)" index="4263" value="1"/>
  <variable name="Y(120,15)" index="8581" value="1"/>
  <variable name="Y(123,19)" index="8800" value="1"/>
  <variable name="Y(124,20)" index="8873" value="1"/>
  <variable name="Y(139,37)" index="9968" value="1"/>
  <variable name="X(1,2,1)" index="67392" value="1"/>
  <variable name="X(1,3,2)" index="68329" value="1"/>
  <variable name="X(1,5,3)" index="69266" value="1"/>
  <variable name="X(1,31,21)" index="70220" value="1"/>
  <variable name="X(1,35,7)" index="71142" value="1"/>
  <variable name="X(1,41,30)" index="72101" value="1"/>
  <variable name="X(2,1,30)" index="73037" value="1"/>
  <variable name="X(2,34,24)" index="73967" value="1"/>
  <variable name="X(2,42,1)" index="74880" value="1"/>
  <variable name="X(3,1,47)" index="75862" value="1"/>
  <variable name="X(3,5,49)" index="76800" value="1"/>
  <variable name="X(3,32,22)" index="77709" value="1"/>
  <variable name="X(3,33,23)" index="78646" value="1"/>
  <variable name="X(3,36,26)" index="79585" value="1"/>
  <variable name="X(3,37,27)" index="80522" value="1"/>
  <variable name="X(3,39,28)" index="81459" value="1"/>
  <variable name="X(3,43,2)" index="82369" value="1"/>
  <variable name="X(4,5,78)" index="83381" value="1"/>
  <variable name="X(4,6,82)" index="84321" value="1"/>
  <variable name="X(4,20,124)" index="85299" value="1"/>
  <variable name="X(4,31,99)" index="86210" value="1"/>
  <variable name="X(4,44,3)" index="87050" value="1"/>
  <variable name="X(5,1,78)" index="88061" value="1"/>
  <variable name="X(5,3,80)" index="88999" value="1"/>
  <variable name="X(5,4,3)" index="89858" value="1"/>
  <variable name="X(5,6,5)" index="90796" value="1"/>
  <variable name="X(5,7,6)" index="91733" value="1"/>
  <variable name="X(5,9,8)" index="92671" value="1"/>
  <variable name="X(5,18,60)" index="93659" value="1"/>
  <variable name="X(5,30,10)" index="94545" value="1"/>
  <variable name="X(5,32,100)" index="95571" value="1"/>
  <variable name="X(5,45,4)" index="96411" value="1"/>
  <variable name="X(6,4,146)" index="97489" value="1"/>
  <variable name="X(6,5,143)" index="98422" value="1"/>
  <variable name="X(6,24,11)" index="99226" value="1"/>
  <variable name="X(6,46,5)" index="100156" value="1"/>
  <variable name="X(7,5,170)" index="101257" value="1"/>
  <variable name="X(7,8,84)" index="102107" value="1"/>
  <variable name="X(7,47,6)" index="102965" value="1"/>
  <variable name="X(8,7,200)" index="104095" value="1"/>
  <variable name="X(8,9,205)" index="105036" value="1"/>
  <variable name="X(8,26,183)" index="105950" value="1"/>
  <variable name="X(8,35,192)" index="106895" value="1"/>
  <variable name="X(8,48,7)" index="107646" value="1"/>
  <variable name="X(9,5,229)" index="108804" value="1"/>
  <variable name="X(9,8,236)" index="109747" value="1"/>
  <variable name="X(9,10,9)" index="110456" value="1"/>
  <variable name="X(9,26,16)" index="111399" value="1"/>
  <variable name="X(9,49,8)" index="112327" value="1"/>
  <variable name="X(10,9,259)" index="113514" value="1"/>
  <variable name="X(10,16,207)" index="114398" value="1"/>
  <variable name="X(10,19,123)" index="115250" value="1"/>
  <variable name="X(10,26,273)" index="116336" value="1"/>
  <variable name="X(10,30,271)" index="117270" value="1"/>
  <variable name="X(10,50,9)" index="117944" value="1"/>
  <variable name="X(12,52,56)" index="118927" value="1"/>
  <variable name="X(13,14,207)" index="120014" value="1"/>
  <variable name="X(13,15,120)" index="120863" value="1"/>
  <variable name="X(13,16,288)" index="121967" value="1"/>
  <variable name="X(13,23,291)" index="122906" value="1"/>
  <variable name="X(13,53,10)" index="123561" value="1"/>
  <variable name="X(14,12,56)" index="124543" value="1"/>
  <variable name="X(14,13,318)" index="125741" value="1"/>
  <variable name="X(14,23,321)" index="126680" value="1"/>
  <variable name="X(14,54,11)" index="127306" value="1"/>
  <variable name="X(15,13,345)" index="128576" value="1"/>
  <variable name="X(15,14,355)" index="129522" value="1"/>
  <variable name="X(15,55,120)" index="130223" value="1"/>
  <variable name="X(16,10,295)" index="131334" value="1"/>
  <variable name="X(16,13,10)" index="131985" value="1"/>
  <variable name="X(16,30,288)" index="133199" value="1"/>
  <variable name="X(16,56,12)" index="133859" value="1"/>
  <variable name="X(18,5,404)" index="135187" value="1"/>
  <variable name="X(18,31,418)" index="136137" value="1"/>
  <variable name="X(18,58,60)" index="136715" value="1"/>
  <variable name="X(19,59,123)" index="137714" value="1"/>
  <variable name="X(20,60,124)" index="138651" value="1"/>
  <variable name="X(23,13,150)" index="139613" value="1"/>
  <variable name="X(23,14,11)" index="140410" value="1"/>
  <variable name="X(23,24,291)" index="141626" value="1"/>
  <variable name="X(23,27,17)" index="142288" value="1"/>
  <variable name="X(23,28,158)" index="143365" value="1"/>
  <variable name="X(23,63,13)" index="144156" value="1"/>
  <variable name="X(24,6,291)" index="145370" value="1"/>
  <variable name="X(24,23,11)" index="146026" value="1"/>
  <variable name="X(24,30,446)" index="147397" value="1"/>
  <variable name="X(24,64,14)" index="147901" value="1"/>
  <variable name="X(25,26,487)" index="149310" value="1"/>
  <variable name="X(25,35,484)" index="150243" value="1"/>
  <variable name="X(25,65,15)" index="150710" value="1"/>
  <variable name="X(26,8,490)" index="152121" value="1"/>
  <variable name="X(26,9,487)" index="153054" value="1"/>
  <variable name="X(26,10,493)" index="153996" value="1"/>
  <variable name="X(26,25,183)" index="154622" value="1"/>
  <variable name="X(26,66,16)" index="155391" value="1"/>
  <variable name="X(27,23,544)" index="156855" value="1"/>
  <variable name="X(27,67,17)" index="157264" value="1"/>
  <variable name="X(28,23,573)" index="158756" value="1"/>
  <variable name="X(28,29,307)" index="159426" value="1"/>
  <variable name="X(28,68,18)" index="160073" value="1"/>
  <variable name="X(29,28,18)" index="161009" value="1"/>
  <variable name="X(29,30,570)" index="162497" value="1"/>
  <variable name="X(29,69,19)" index="162882" value="1"/>
  <variable name="X(30,5,288)" index="164087" value="1"/>
  <variable name="X(30,10,469)" index="165204" value="1"/>
  <variable name="X(30,16,10)" index="165681" value="1"/>
  <variable name="X(30,24,271)" index="166878" value="1"/>
  <variable name="X(30,29,18)" index="167561" value="1"/>
  <variable name="X(30,70,20)" index="168499" value="1"/>
  <variable name="X(31,1,658)" index="170073" value="1"/>
  <variable name="X(31,4,661)" index="171012" value="1"/>
  <variable name="X(31,40,29)" index="171316" value="1"/>
  <variable name="X(31,71,21)" index="172244" value="1"/>
  <variable name="X(32,3,687)" index="173846" value="1"/>
  <variable name="X(32,5,690)" index="174785" value="1"/>
  <variable name="X(32,72,22)" index="175053" value="1"/>
  <variable name="X(33,3,713)" index="176680" value="1"/>
  <variable name="X(33,35,720)" index="177623" value="1"/>
  <variable name="X(33,73,23)" index="177862" value="1"/>
  <variable name="X(34,2,742)" index="179517" value="1"/>
  <variable name="X(34,35,748)" index="180459" value="1"/>
  <variable name="X(34,74,24)" index="180671" value="1"/>
  <variable name="X(35,1,198)" index="181781" value="1"/>
  <variable name="X(35,8,7)" index="182526" value="1"/>
  <variable name="X(35,25,15)" index="183470" value="1"/>
  <variable name="X(35,33,222)" index="184613" value="1"/>
  <variable name="X(35,34,192)" index="185519" value="1"/>
  <variable name="X(35,75,25)" index="186288" value="1"/>
  <variable name="X(36,3,800)" index="187999" value="1"/>
  <variable name="X(36,37,824)" index="188959" value="1"/>
  <variable name="X(36,76,26)" index="189097" value="1"/>
  <variable name="X(37,3,827)" index="190834" value="1"/>
  <variable name="X(37,36,853)" index="191796" value="1"/>
  <variable name="X(37,38,27)" index="191906" value="1"/>
  <variable name="X(37,77,139)" index="192954" value="1"/>
  <variable name="X(38,37,857)" index="194608" value="1"/>
  <variable name="X(38,78,27)" index="194714" value="1"/>
  <variable name="X(39,3,878)" index="196501" value="1"/>
  <variable name="X(39,40,77)" index="196636" value="1"/>
  <variable name="X(39,79,28)" index="197523" value="1"/>
  <variable name="X(40,31,900)" index="199331" value="1"/>
  <variable name="X(40,39,685)" index="200052" value="1"/>
  <variable name="X(40,80,29)" index="200332" value="1"/>
 </variables>
</CPLEXSolution>
